122 5
10 10 10 10 10 

0 0 0 0 0 0 5 2 14 26 38 50 
0 0 0 0 0 0 3 3 5 6 
9 0 0 0 0 6 3 12 11 4 
9 0 0 0 0 5 3 10 8 7 
10 0 0 0 0 6 3 9 8 7 
3 0 0 0 0 8 2 9 7 
3 0 0 0 0 10 1 13 
8 0 0 0 0 10 1 13 
7 0 0 0 0 5 1 13 
4 0 0 0 0 6 1 13 
7 0 0 0 0 9 1 13 
7 0 0 0 0 10 1 13 
0 0 0 0 0 0 1 62 
0 0 0 0 0 0 5 15 16 17 23 24 
7 0 0 0 0 2 3 21 19 18 
4 0 0 0 0 7 3 21 20 19 
10 0 0 0 0 9 2 22 19 
2 0 0 0 0 9 1 20 
1 0 0 0 0 10 1 25 
7 0 0 0 0 7 1 25 
8 0 0 0 0 8 1 25 
3 0 0 0 0 10 1 25 
7 0 0 0 0 5 1 25 
7 0 0 0 0 8 1 25 
0 0 0 0 0 0 1 62 
0 0 0 0 0 0 2 27 28 
2 0 0 0 0 6 3 31 30 29 
8 0 0 0 0 5 3 31 30 29 
6 0 0 0 0 4 5 36 35 34 33 32 
8 0 0 0 0 5 4 35 34 33 32 
10 0 0 0 0 10 4 35 34 33 32 
6 0 0 0 0 10 1 37 
2 0 0 0 0 10 1 37 
1 0 0 0 0 10 1 37 
10 0 0 0 0 6 1 37 
8 0 0 0 0 9 1 37 
0 0 0 0 0 0 1 62 
0 0 0 0 0 0 2 39 40 
10 0 5 0 0 0 3 43 42 41 
9 0 7 0 0 0 3 43 42 41 
4 0 6 0 0 0 4 48 46 45 44 
9 0 10 0 0 0 4 47 46 45 44 
10 0 9 0 0 0 4 47 46 45 44 
7 0 6 0 0 0 1 49 
7 0 10 0 0 0 1 49 
7 0 5 0 0 0 1 49 
7 0 9 0 0 0 1 49 
5 0 8 0 0 0 1 49 
0 0 0 0 0 0 1 62 
0 0 0 0 0 0 4 51 52 55 60 
9 0 3 0 0 0 3 59 54 53 
10 0 10 0 0 0 3 58 57 56 
5 0 8 0 0 0 2 57 56 
7 0 6 0 0 0 1 56 
10 0 9 0 0 0 1 56 
1 0 10 0 0 0 1 61 
8 0 7 0 0 0 1 61 
2 0 5 0 0 0 1 61 
1 0 7 0 0 0 1 61 
5 0 10 0 0 0 1 61 
0 0 0 0 0 0 1 62 
0 0 0 0 0 0 2 63 75 
0 0 0 0 0 0 4 64 71 72 73 
3 0 0 6 0 0 4 70 69 68 65 
7 0 0 8 0 0 2 67 66 
4 0 0 2 0 0 1 74 
7 0 0 8 0 0 1 74 
10 0 0 6 0 0 1 74 
1 0 0 10 0 0 1 74 
7 0 0 10 0 0 1 74 
5 0 0 9 0 0 1 74 
1 0 0 9 0 0 1 74 
4 0 0 7 0 0 1 74 
0 0 0 0 0 0 1 87 
0 0 0 0 0 0 4 76 78 79 85 
5 0 0 0 1 0 4 84 83 81 77 
1 0 0 0 10 0 2 82 80 
3 0 0 0 6 0 1 81 
4 0 0 0 8 0 1 80 
4 0 0 0 9 0 1 86 
10 0 0 0 9 0 1 86 
4 0 0 0 9 0 1 86 
7 0 0 0 6 0 1 86 
7 0 0 0 9 0 1 86 
4 0 0 0 8 0 1 86 
0 0 0 0 0 0 1 87 
0 0 0 0 0 0 5 88 90 91 92 97 
8 0 0 0 0 7 1 89 
2 0 0 0 0 6 3 96 95 94 
10 0 0 0 0 10 3 96 95 94 
5 0 0 0 0 10 2 95 93 
10 0 0 0 0 5 1 93 
5 0 0 0 0 7 1 94 
2 0 0 0 0 9 1 98 
8 0 0 0 0 6 1 98 
7 0 0 0 0 5 1 98 
8 0 0 0 0 10 1 98 
0 0 0 0 0 0 1 99 
0 0 0 0 0 0 3 100 101 102 
8 0 0 0 1 0 4 109 108 104 103 
9 0 0 0 10 0 4 108 106 104 103 
3 0 0 0 4 0 3 109 105 103 
4 0 0 0 10 0 1 107 
6 0 0 0 8 0 1 107 
2 0 0 0 10 0 1 108 
4 0 0 0 4 0 1 107 
5 0 0 0 10 0 1 110 
1 0 0 0 10 0 1 110 
9 0 0 0 8 0 1 110 
0 0 0 0 0 0 1 111 
0 0 0 0 0 0 4 112 113 115 121 
6 0 0 0 0 3 4 120 119 116 114 
2 0 0 0 0 8 3 120 118 117 
8 0 0 0 0 8 2 118 117 
2 0 0 0 0 5 2 119 117 
2 0 0 0 0 4 1 117 
10 0 0 0 0 10 1 122 
5 0 0 0 0 10 1 122 
6 0 0 0 0 10 1 122 
4 0 0 0 0 7 1 122 
10 0 0 0 0 10 1 122 
0 0 0 0 0 0 0 
